264
500
400	2
399	1
398	3
396	5
395	1
394	3
392	5
391	2
390	2
389	3
387	5
386	3
385	7
384	4
383	7
380	3
379	3
378	2
377	1
376	2
375	2
374	6
371	6
370	2
369	6
368	4
367	1
366	6
365	4
364	1
363	3
362	6
361	3
360	2
359	5
358	2
357	5
356	1
355	3
354	3
353	1
352	4
351	2
350	2
348	4
346	2
345	2
343	5
342	3
341	3
340	4
339	1
338	2
336	5
335	1
334	2
333	6
332	1
331	1
330	2
329	6
328	2
327	4
325	3
324	2
323	2
322	3
321	3
320	1
319	4
318	2
317	5
316	1
315	2
314	1
313	3
312	1
311	2
310	2
308	3
307	5
306	3
305	1
303	5
302	3
301	3
300	3
299	1
298	2
297	6
295	2
294	4
293	2
292	3
290	4
289	3
288	2
287	4
285	2
283	1
282	3
281	1
280	2
279	1
278	1
277	3
276	6
275	2
274	1
273	4
271	2
270	3
269	4
268	3
267	2
266	2
265	4
263	2
262	2
261	3
259	2
258	3
257	2
256	2
255	6
254	2
253	3
252	1
251	6
250	3
249	3
248	2
247	3
246	3
245	4
244	3
243	4
242	2
241	3
240	7
239	4
237	4
236	4
235	1
232	2
231	3
230	3
228	2
227	2
226	2
225	3
224	3
222	3
221	2
220	4
219	4
218	3
217	1
216	1
215	1
214	3
213	1
212	4
210	2
209	2
208	2
207	3
206	5
205	5
204	3
203	1
202	3
198	1
197	2
196	2
195	2
194	2
193	4
192	1
191	3
190	4
189	5
188	1
187	3
186	5
185	1
183	2
182	2
181	1
180	3
179	3
178	5
177	3
176	3
175	1
174	2
173	7
172	2
170	5
169	1
168	2
167	2
165	2
164	2
163	4
161	3
160	2
159	1
158	2
157	3
155	1
154	1
153	6
152	1
151	1
150	2
149	2
148	2
147	2
146	6
145	7
144	2
143	4
142	1
141	2
140	3
139	1
138	2
137	2
136	2
135	4
134	3
133	2
132	6
131	3
129	3
127	2
126	3
125	3
124	1
123	1
122	3
121	2
120	3
119	3
118	2
117	1
116	7
115	3
114	2
113	4
112	2
111	6
110	4
109	2
108	4
107	2
106	4
105	4
104	1
103	1
102	3
101	4
100	3
